8007
24, 48, 38, 40, 39, 37, 46, 44, 34, 35, 36, 49, 32, 1, 22, 18, 31, 23, 20, 50, 16, 29, 30, 2, 7, 42, 21, 17, 3, 45, 19, 41, 8, 9, 10, 33, 43, 4, 12, 51, 11, 52, 14, 13, 47, 26, 27, 28, 25, 6, 15, 5
